(set-logic QF_BV)
(declare-fun _substvar_220_ () (_ BitVec 16))
(declare-fun _substvar_307_ () (_ BitVec 16))
(declare-fun _substvar_308_ () (_ BitVec 8))
(declare-fun _substvar_380_ () (_ BitVec 8))
(declare-fun _substvar_305_ () (_ BitVec 8))
(assert (let ( (?v_10 ((_ zero_extend 24) _substvar_380_)) (?v_3 ((_ zero_extend 24) _substvar_305_)) (?v_1 ((_ zero_extend 24) _substvar_308_))) (let ((?v_0 (bvadd ?v_1 (_ bv1 32)))) (let ((?v_2 (bvadd (bvadd ?v_0 (_ bv4268253 32)) ((_ zero_extend 16) _substvar_307_)))) (let ((?v_4 (bvadd ?v_2 (_ bv6 32)))) (let ((?v_6 (bvadd (bvadd ?v_4 (bvadd ?v_3 (_ bv1 32))) (_ bv2 32)))) (let ((?v_5 (bvadd ?v_6 ((_ zero_extend 16) _substvar_220_)))) (let ((?v_8 (bvadd ?v_5 (_ bv6 32)))) (let ((?v_9 (bvadd ?v_8 (_ bv0 32)))) (let ((?v_15 (bvadd ?v_9 (_ bv2 32)))) (let ((?v_14 (bvadd ?v_15 ?v_10))) (let ((?v_16 (bvadd (bvadd ?v_14 (_ bv1 32)) (_ bv0 32)))) (and true true true true (bvsle (_ bv1040 32) (bvsub ?v_16 (_ bv4268071 32))) true true true true true true true true true true true true true true true (bvule (bvadd ?v_14 (_ bv2 32)) (_ bv4269078 32)) true true true)))))))))))))
(check-sat)
(exit)
